24781,
23954,
23271,
22122,
21685,
21586,
20955,
20770,
20132,
19626,
19626,
19402,
18627,
18507,
18507,
18116,
18116,
18016,
17488,
17075,
17054,
16925,
16756,
16756,
16756,
16756,
16756,
15768,
15768,
15768,
15768,
15768,
15768,
15768,
15768,
15768,
15768,
15768,
15768,
15768,
15768,
15768,
15768,
15768,
15768,
15768,
15768,
15768,
15768,
15768,
15768,
15768,
15760,
15760,
15760,
15760,
15760,
15337,
15337,
15337,
15179,
15179,
15179,
15179,
15179,
15179,
15179,
15179,
15179,
15179,
15179,
15179,
15179,
15179,
15179,
15117,
15117,
15117,
15117,
15117,
15117,
15090,
14667,
14626,
14626,
14626,
14626,
14626,
14626,
14626,
14626,
14626,
14626,
14626,
14626,
14626,
14626,
14613,
14613,
14613,
14613,
14613,
14613,
14613,
14521,
14521,
14521,
14521,
14498,
14498,
14498,
14498,
14204,
14204,
14204,
14204,
14204,
14204,
14204,
14204,
14204,
14204,
14204,
14204,
14204,
14204,
14204,
14204,
14204,
14204,
14204,
14204,
14204,
14204,
13923,
13923,
13923,
13852,
13852,
13852,
13852,
13828,
13828,
13828,
13828,
13821,
13821,
13821,
13821,
13821,
13821,
13821,
13821,
13821,
13821,
13381,
13381,
13381,
13381,
13381,
13381,
13381,
13381,
13381,
13381,
13381,
13381,
13381,
13381,
13381,
13381,
13381,
13381,
13381,
13381,
13296,
13296,
13296,
13296,
13296,
13296,
13296,
13296,
13296,
13296,
13296,
13296,
13296,
13296,
13296,
13296,
13296,
13296,
13296,
13296,
13296,
13296,
13284,
13284,
13284,
13284,
13284,
13284,
13284,
13284,
13284,
13284,
13284,
13232,
13232,
13232,
13232,
13232,
13232,
13232,
13232,
13232,
13232,
13232,
13232,
13232,
13232,
13232,
13232,
13232,
13232,
13232,
13232,
13232,
13232,
13232,
13232,
13232,
13232,
13232,
13232,
13151,
13151,
13151,
13151,
13151,
13151,
13151,
13151,
13151,
13151,
13151,
13151,
13151,
13151,
13151,
13151,
13151,
13151,
13151,
13151,
13151,
13151,
13151,
13151,
13151,
13151,
13151,
13151,
13151,
13151,
13151,
13151,
13151,
13151,
13151,
13151,
13151,
13151,
13151,
13151,
13151,
13151,
13151,
13151,
13151,
13151,
13151,
13151,
13151,
13151,
13151,
13151,
13151,
12824,
12824,
12824,
12824,
12824,
12824,
12824,
12824,
12824,
12629,
12629,
12629,
12629,
12629,
12629,
12629,
12629,
12629,
12629,
12629,
12629,
12629,
12629,
12629,
12629,
12629,
12629,
12629,
12629,
12629,
12629,
12629,
12629,
12629,
12629,
12521,
12521,
12521,
12521,
12521,
12521,
12521,
12521,
12521,
12521,
12521,
12521,
12521,
12521,
12521,
12521,
12521,
12521,
12521,
12521,
12521,
12413,
12413,
12413,
12413,
12413,
12413,
12413,
12279,
12279,
12279,
12279,
12279,
12279,
12279,
12279,
12279,
12279,
12279,
12279,
12279,
12279,
12279,
12279,
12279,
12279,
12279,
12279,
12279,
12279,
12279,
12279,
12279,
12279,
12279,
12279,
12279,
12279,
12279,
12279,
12279,
12279,
12279,
12279,
12279,
12279,
12279,
12279,
12279,
12279,
12279,
12279,
12279,
12279,
12279,
12279,
12279,
12279,
12279,
12279,
12279,
12279,
12279,
12279,
12279,
12279,
12279,
12279,
12279,
12279,
12279,
12279,
12279,
12279,
12279,
12279,
12279,
12279,
12279,
12279,
12279,
12279,
12279,
12279,
12279,
12279,
12279,
12279,
12279,
12279,
12279,
12279,
12279,
12279,
12279,
12279,
12279,
12279,
12279,
12279,
12279,
12279,
12279,
12279,
12279,
12279,
12279,
12279,
12279,
12279,
12279,
12279,
12234,
12234,
12234,
12234,
12234,
12234,
12234,
12234,
12234,
12234,
12234,
12234,
12234,
12234,
12234,
12234,
12234,
12234,
12234,
12234,
12234,
12234,
12234,
12234,
12234,
12234,
12234,
12234,
12234,
12234,
12234,
12234,
12234,
12234,
12234,
12234,
12234,
12234,
12234,
12234,
12234,
12234,
12234,
12234,
12234,
12035,
12035,
12035,
12035,
12035,
12035,
12035,
12035,
12035,
12035,
12035,
12035,
12035,
12035,
12035,
12035,
12035,
12035,
12035,
12035,
12035,
12035,
12035,
12035,
12035,
12035,
12035,
12035,
12035,
12035,
12035,
12035,
12035,
12035,
12035,
12035,
12035,
12035,
12035,
12035,
12035,
12035,
12035,
12035,
12035,
12035,
12035,
12035,
12035,
12035,
12008,
12008,
12008,
12008,
12008,
12008,
12008,
12008,
12008,
12008,
12008,
12008,
12008,
12008,
12008,
12008,
12008,
12008,
12008,
12008,
12008,
12008,
12008,
12008,
12008,
12008,
12008,
12008,
12008,
12008,
12008,
12008,
12008,
12008,
12008,
12008,
12008,
12008,
12008,
12008,
12008,
12008,
12008,
12008,
12008,
11911,
11911,
11911,
11911,
11911,
11911,
11911,
11911,
11911,
11911,
11911,
11911,
11911,
11911,
11911,
11911,
11911,
11911,
11911,
11911,
11911,
11911,
11911,
11911,
11911,
11894,
11894,
11894,
11894,
11894,
11894,
11894,
11894,
11894,
11894,
11894,
11894,
11894,
11894,
11894,
11894,
11894,
11894,
11894,
11894,
11894,
11894,
11894,
11894,
11894,
11894,
11894,
11894,
11894,
11894,
11894,
11894,
11894,
11894,
11894,
11894,
11894,
11894,
11894,
11894,
11894,
11894,
11894,
11894,
11894,
11894,
11894,
11894,
11894,
11894,
11894,
11894,
11894,
11894,
11894,
11894,
11894,
11894,
11894,
11894,
11894,
11894,
11894,
11894,
11894,
11894,
11894,
11894,
11894,
11894,
11894,
11894,
11894,
11894,
11894,
11894,
11894,
11894,
11894,
11894,
11894,
11894,
11894,
11837,
11837,
11837,
11837,
11837,
11837,
11837,
11837,
11837,
11837,
11837,
11837,
11837,
11837,
11837,
11837,
11837,
11837,
11837,
11837,
11837,
11837,
11837,
11837,
11837,
11837,
11837,
11837,
11837,
11837,
11837,
11837,
11837,
11837,
11833,
11833,
11833,
11833,
11833,
11833,
11833,
11833,
11833,
11833,
11833,
11833,
11833,
11833,
11833,
11833,
11833,
11833,
11833,
11833,
11833,
11833,
11833,
11823,
11823,
11823,
11823,
11823,
11823,
11823,
11823,
11823,
11823,
11816,
11816,
11816,
11816,
11816,
11816,
11816,
11816,
11816,
11816,
11816,
11816,
11816,
11816,
11816,
11816,
11816,
11816,
11816,
11816,
11816,
11816,
11816,
11816,
11816,
11816,
11816,
11816,
11816,
11816,
11816,
11816,
11816,
11816,
11816,
11816,
11816,
11816,
11816,
11816,
11816,
11816,
11816,
11816,
11816,
11816,
11816,
11816,
11816,
11816,
11816,
11816,
11816,
11816,
11816,
11816,
11816,
11816,
11816,
11816,
11816,
11816,
11816,
11816,
11816,
11816,
11816,
11816,
11812,
11812,
11812,
11812,
11812,
11812,
11812,
11812,
11812,
11812,
11812,
11812,
11812,
11812,
11812,
11812,
11812,
11812,
11812,
11812,
11812,
11812,
11812,
11812,
11812,
11812,
11812,
11812,
11812,
11812,
11812,
11812,
11812,
11812,
11812,
11812,
11812,
11812,
11812,
11812,
11812,
11812,
11812,
11812,
11812,
11812,
11812,
11812,
11812,
11812,
11812,
11812,
11812,
11812,
11812,
11812,
11812,
11812,
11812,
11812,
11812,
11812,
11812,
11812,
11812,
11812,
11812,
11812,
11812,
11747,
11747,
11747,
11747,
11747,
11747,
11747,
11747,
11747,
11747,
11747,
11747,
11747,
11747,
11747,
11747,
11747,
11747,
11747,
11747,
11747,
11747,
11747,
11747,
11747,
11747,
11747,
11747,
11747,
11747,
11721,
11721,
11721,
11721,
11721,
11721,
11721,
11721,
11721,
11652,
11652,
11652,
11652,
11652,
11652,
11652,
11652,
11652,
11652,
11652,
11652,
11652,
11652,
11652,
11652,
11652,
11652,
11652,
11652,
11652,
11652,
11652,
11652,
11652,
11652,
11652,
11652,
11652,
11652,
11652,
11652,
11652,
11652,
11652,
11652,
11652,
11652,
11652,
11652,
11652,
11652,
11652,
11652,
11652,
11652,
11652,
11652,
11652,
11652,
11652,
11652,
11652,
11652,
11652,
11652,
11652,
11652,
11652,
11652,
11652,
11652,
11652,
11652,
11652,
11652,
11652,
11652,
11652,
11652,
11652,
11652,
11652,
11652,
11652,
11652,
11652,
11652,
11652,
11652,
11652,
11652,
11652,
11652,
11652,
11652,
11652,
11652,
11652,
11652,
11652,
11652,
11652,
11652,
11652,
11652,
11652,
11652,
11652,
11652,
11652,
11652,
11652,
11652,
11652,
11652,
11652,
11652,
11652,
11652,
11652,
11652,
11652,
11652,
11652,
11652,
11652,
11652,
11652,
11652,
11652,
11652,
11652,
11652,
11652,
11652,
11652,
11652,
11652,
11652,
11652,
11652,
11652,
11652,
11652,
11652,
11652,
11652,
11652,
11652,
11652,
11652,
11652,
11652,
11652,
11652,
11652,
11652,
11652,
11652,
11652,
11652,
11652,
11652,
11652,
11652,
11652,
11652,
11652,
11652,
11652,
11652,
11652,
11652,
11652,
11652,
11652,
11652,
11652,
11652,
11652,
11652,
11652,
11652,
11652,
11652,
11652,
11652,
11652,
11652,
11652,
11652,
11652,
11652,
11652,
11652,
11652,
11652,
11652,
11652,
11652,
11652,
11652,
11652,
11652,
11652,
11652,
11652,
11652,
11652,
11652,
11652,
11652,
11652,
11652,
11652,
11652,
11652,
11652,
11652,
11652,
11652,
11652,
11652,
11652,
11652,
11652,
11652,
11652,
11652,
11652,
11652,
11652,
11652,
11652,
11652,
11652,
11652,
11652,
11652,
11652,
11652,
11652,
11652,
11652,
11652,
11652,
11652,
11652,
11652,
11652,
11652,
11652,
11652,
11652,
11652,
11652,
11652,
11652,
11652,
11652,
11652,
11652,
11652,
11652,
11652,
11652,
11652,
11652,
11652,
11652,
11652,
11652,
11652,
11652,
11652,
11652,
11652,
11652,
11652,
11652,
11652,
11652,
11652,
11652,
11652,
11652,
11652,
11652,
11652,
11652,
11652,
11652,
11652,
11652,
11652,
11652,
11652,
11652,
11652,
11652,
11652,
11652,
11652,
11652,
11652,
11652,
11652,
11652,
11652,
11652,
11652,
11652,
11652,
11652,
11652,
11652,
11652,
11652,
11652,
11652,
11652,
11652,
11652,
11652,
11652,
11642,
11642,
11642,
11642,
11642,
11642,
11642,
11642,
11642,
11642,
11642,
11642,
11642,
11642,
11642,
11642,
11642,
11642,
11642,
11642,
11642,
11642,
11642,
11642,
11642,
11642,
11642,
11642,
11642,
11642,
11642,
11642,
11642,
11642,
11592,
11592,
11592,
11592,
11592,
11592,
11592,
11592,
11592,
11592,
11592,
11592,
11592,
11564,
11564,
11564,
11564,
11564,
11564,
11564,
11564,
11564,
11564,
11564,
11564,
11564,
11564,
11564,
11564,
11564,
11564,
11564,
11564,
11564,
11564,
11564,
11564,
11432,
11432,
11432,
11432,
11432,
11432,
11432,
11432,
11432,
11432,
11432,
11432,
11432,
11432,
11432,
11432,
11432,
11432,
11432,
11432,
11432,
11432,
11432,
11432,
11432,
11432,
11432,
11432,
11432,
11432,
11432,
11432,
11432,
11432,
11432,
11432,
11432,
11432,
11432,
11432,
11432,
11432,
11432,
11432,
11432,
11432,
11432,
11432,
11432,
11432,
11432,
11432,
11432,
11432,
11432,
11432,
11432,
11432,
11432,
11432,
11432,
11432,
11432,
11432,
11432,
11432,
11432,
11432,
11432,
11432,
11432,
11432,
11432,
11432,
11432,
11432,
11432,
11426,
11426,
11426,
11426,
11426,
11426,
11426,
11426,
11426,
11426,
11426,
11426,
11426,
11426,
11426,
11426,
11426,
11426,
11422,
11422,
11422,
11422,
11422,
11422,
11422,
11422,
11422,
11422,
11422,
11422,
11422,
11422,
11422,
11422,
11422,
11422,
11422,
11422,
11422,
11422,
11422,
11422,
11422,
11422,
11422,
11422,
11422,
11422,
11422,
11422,
11422,
11422,
11422,
11422,
11422,
11422,
11422,
11422,
11422,
11422,
11422,
11422,
11422,
11422,
11422,
11422,
11422,
11422,
11422,
11422,
11422,
11422,
11422,
11422,
11422,
11395,
11395,
11395,
11395,
11395,
11395,
11395,
11395,
11395,
11395,
11395,
11395,
11395,
11395,
11395,
1,
